
Gurobi 7.0.2 (mac64, Python) logging started Mon Sep 24 07:57:12 2018


Gurobi 8.0.1 (mac64, Python) logging started Tue Oct  2 15:17:20 2018

Academic license - for non-commercial use only

Gurobi 7.0.2 (mac64, Python) logging started Thu Nov  1 10:21:54 2018

